MLT02
Position Depot: Random
Horizon for Depot: Large
Position of customers: Mixt
Distribution of the demand: Large
Width of time windows: Tight
Distribution of the service: Large

VEHICLE 
NUMBER 	 CAPACITY 
 5 	 	 531 
 
CUSTOMER
CUST NO. 	 XCOORD.  	 YCOORD. 	 DEMAND 	 READY TIME 	 DUE DATE 	 SERVICE TIME 
 0 	 	 870 	 	 658 	 	 0 	 	 0 	 	 4358 	 	 0 
  1 	 	 384 	 	 944 	 	 11 	 	 444 	 	 620 	 	 164 
  2 	 	 219 	 	 127 	 	 93 	 	 3676 	 	 3817 	 	 145 
  3 	 	 739 	 	 38 	 	 80 	 	 3853 	 	 4018 	 	 106 
  4 	 	 800 	 	 74 	 	 60 	 	 1187 	 	 1386 	 	 175 
  5 	 	 659 	 	 62 	 	 79 	 	 3392 	 	 3493 	 	 136 
  6 	 	 328 	 	 970 	 	 52 	 	 591 	 	 687 	 	 147 
  7 	 	 808 	 	 116 	 	 14 	 	 1148 	 	 1335 	 	 142 
  8 	 	 222 	 	 131 	 	 86 	 	 798 	 	 995 	 	 175 
  9 	 	 225 	 	 124 	 	 29 	 	 848 	 	 921 	 	 108 
  10 	 	 777 	 	 99 	 	 62 	 	 544 	 	 623 	 	 163 
  11 	 	 356 	 	 903 	 	 42 	 	 3593 	 	 3765 	 	 156 
  12 	 	 704 	 	 186 	 	 30 	 	 473 	 	 550 	 	 145 
  13 	 	 715 	 	 194 	 	 56 	 	 503 	 	 651 	 	 152 
  14 	 	 853 	 	 14 	 	 96 	 	 586 	 	 708 	 	 119 
  15 	 	 701 	 	 113 	 	 33 	 	 1220 	 	 1369 	 	 135 
  16 	 	 414 	 	 166 	 	 85 	 	 4141 	 	 4245 	 	 102 
  17 	 	 813 	 	 43 	 	 84 	 	 4223 	 	 4358 	 	 168 
  18 	 	 206 	 	 211 	 	 58 	 	 1017 	 	 1089 	 	 112 
  19 	 	 441 	 	 945 	 	 58 	 	 4224 	 	 4335 	 	 136 
  20 	 	 458 	 	 995 	 	 79 	 	 719 	 	 870 	 	 153 
  21 	 	 684 	 	 129 	 	 81 	 	 1888 	 	 2037 	 	 172 
  22 	 	 737 	 	 61 	 	 16 	 	 2224 	 	 2387 	 	 114 
  23 	 	 407 	 	 181 	 	 43 	 	 3717 	 	 3894 	 	 130 
  24 	 	 619 	 	 56 	 	 60 	 	 1050 	 	 1174 	 	 114 
  25 	 	 795 	 	 221 	 	 13 	 	 3013 	 	 3116 	 	 192 
  26 	 	 742 	 	 326 	 	 60 	 	 4180 	 	 4358 	 	 196 
  27 	 	 199 	 	 330 	 	 56 	 	 2479 	 	 2541 	 	 194 
  28 	 	 202 	 	 22 	 	 84 	 	 2332 	 	 2436 	 	 121 
  29 	 	 831 	 	 357 	 	 43 	 	 445 	 	 523 	 	 114 
  30 	 	 132 	 	 60 	 	 7 	 	 2873 	 	 2971 	 	 142 
  31 	 	 315 	 	 728 	 	 31 	 	 2499 	 	 2620 	 	 162 
  32 	 	 127 	 	 57 	 	 79 	 	 3067 	 	 3231 	 	 129 
  33 	 	 581 	 	 144 	 	 76 	 	 2196 	 	 2295 	 	 196 
  34 	 	 823 	 	 618 	 	 89 	 	 151 	 	 225 	 	 172 
  35 	 	 960 	 	 661 	 	 19 	 	 1252 	 	 1439 	 	 175 
  36 	 	 255 	 	 200 	 	 61 	 	 1371 	 	 1421 	 	 144 
  37 	 	 666 	 	 382 	 	 22 	 	 3941 	 	 4039 	 	 176 
  38 	 	 688 	 	 672 	 	 66 	 	 1076 	 	 1237 	 	 162 
  39 	 	 161 	 	 600 	 	 8 	 	 1174 	 	 1356 	 	 112 
  40 	 	 667 	 	 583 	 	 74 	 	 3579 	 	 3676 	 	 181 
  41 	 	 573 	 	 906 	 	 95 	 	 663 	 	 832 	 	 176 
  42 	 	 392 	 	 851 	 	 9 	 	 551 	 	 607 	 	 132 
  43 	 	 742 	 	 143 	 	 16 	 	 1074 	 	 1187 	 	 181 
  44 	 	 576 	 	 951 	 	 55 	 	 922 	 	 1019 	 	 130 
  45 	 	 660 	 	 944 	 	 79 	 	 2646 	 	 2723 	 	 126 
  46 	 	 240 	 	 475 	 	 51 	 	 3878 	 	 3962 	 	 166 
  47 	 	 67 	 	 911 	 	 60 	 	 1869 	 	 2049 	 	 149 
  48 	 	 838 	 	 471 	 	 59 	 	 1622 	 	 1751 	 	 153 
  49 	 	 506 	 	 734 	 	 26 	 	 1853 	 	 1923 	 	 120 
  50 	 	 503 	 	 843 	 	 30 	 	 2945 	 	 3078 	 	 158 
 